c --- [ banner ] -------------------------------------------------------------
c 
c CaDiCaL Radically Simplified CDCL SAT Solver
c Copyright (c) 2016-2021 A. Biere, M. Fleury, N. Froleyks
c 
c Version 1.5.2 ca9bff05c11bde5eae4912f9932871d1527e61d8
c g++ (GCC) 9.3.0 -Wall -Wextra -O3 -DNDEBUG
c Thu Mar 31 01:52:53 EDT 2022 Linux gra-login3 3.10.0-1160.59.1.el7.x86_64 x86_64
c 
c --- [ limit ] --------------------------------------------------------------
c 
c setting conflict limit to 200000 conflicts (due to '200000')
c 
c --- [ parsing input ] ------------------------------------------------------
c 
c reading DIMACS file from '5.cubes47.adj'
c opening file to read '5.cubes47.adj'
c found 'p cnf 5320 922647' header
c parsed 922647 clauses in 8.49 seconds process time
c closing file '5.cubes47.adj'
c after reading 673840279 bytes 642.6 MB
c 
c --- [ options ] ------------------------------------------------------------
c 
c all options are set to their default value
c 
c --- [ solving ] ------------------------------------------------------------
c 
c time measured in process time since initialization
c 
c  seconds   reductions  redundant  irredundant
c          MB    restarts       trail      variables
c           level   conflicts       glue        remaining
c 
c *  8.49 672  0 0   0    0    0  0% 0 922009 4207 79%
c {  9.41 721  0 0   0    0    0  0% 0 922009 4207 79%
c i  9.55 722 33 0   0    5    3 40% 1 922009 4185 79%
c i  9.81 723 21 0   4   56   42 34% 3 922009 4068 76%
c i 10.77 746 32 0  15   98   73 39% 15 922009 4067 76%
c i 10.77 746 32 0  15   99   73 39% 15 922009 4066 76%
c i 11.58 753 62 0  34  180  139 44% 26 922009 4065 76%
c i 12.23 759 71 0  43  218  173 46% 28 922009 4064 76%
c i 12.80 763 71 0  55  272  224 46% 28 922009 4063 76%
c i 12.82 763 71 0  55  273  224 46% 28 922009 4062 76%
c i 12.83 763 70 0  55  278  228 46% 28 922009 4061 76%
c i 12.90 763 71 0  55  282  229 46% 27 922009 4058 76%
c i 13.10 765 74 0  55  297  242 47% 27 922009 4049 76%
c i 13.14 765 76 0  55  312  248 46% 27 922009 4044 76%
c - 14.76 733 76 1  55  312  226 46% 27 294062 4040 76%
c i 15.12 699 81 1  56  358  264 47% 27 294062 4039 76%
c i 15.28 699 77 1  56  412  312 48% 26 294062 4038 76%
c i 15.70 699 77 1  66  469  353 49% 27 294062 4037 76%
c i 15.70 699 77 1  66  470  353 49% 27 294062 4036 76%
c i 15.70 699 77 1  67  471  353 49% 27 294062 4035 76%
c 
c  seconds   reductions  redundant   irredundant
c          MB    restarts       trail       variables
c           level   conflicts       glue         remaining
c 
c i 15.70 699 77 1  67  472  353 49% 27 294062 4034 76%
c i 15.70 699 77 1  67  473  353 49% 27 294062 4033 76%
c i 15.70 699 77 1  67  474  353 49% 27 294062 4032 76%
c i 15.82 700 75 1  67  499  374 49% 27 294062 4031 76%
c i 15.83 700 74 1  67  506  380 49% 27 294062 4030 76%
c i 15.94 700 75 1  69  540  410 48% 27 294062 4029 76%
c i 15.97 700 75 1  69  543  412 48% 27 294062 4028 76%
c i 15.99 700 75 1  69  549  416 49% 27 294062 4027 76%
c i 15.99 700 75 1  69  554  420 49% 27 294062 4026 76%
c i 16.00 700 76 1  69  558  422 48% 27 294062 4025 76%
c i 16.18 700 76 1  79  601  454 49% 28 294062 4024 76%
c i 16.38 701 77 1  83  615  466 48% 28 294062 4023 76%
c i 16.51 701 77 1  86  627  476 49% 28 294062 4022 76%
c i 16.54 701 75 1  86  649  496 49% 28 294062 4021 76%
c i 16.62 701 76 1  86  651  497 49% 28 294062 4020 76%
c i 16.86 701 74 1  90  696  526 49% 28 294062 4019 76%
c i 17.22 702 75 1  97  735  561 49% 29 294062 4018 76%
c i 17.28 702 76 1  98  747  569 49% 29 294062 4015 75%
c i 17.64 702 72 1 101  843  610 48% 28 294062 4014 75%
c i 17.67 702 72 1 101  845  611 48% 28 294062 4013 75%
c 
c  seconds   reductions  redundant   irredundant
c          MB    restarts       trail       variables
c           level   conflicts       glue         remaining
c 
c i 17.84 702 75 1 106  872  633 48% 30 294062 4012 75%
c } 18.89 703 80 1 139 1001  741 48% 32 294062 4012 75%
c [ 18.89 703  0 1 139 1001  741  0% 0 294062 4012 75%
c O 18.89 703  1 1 139 1002  742 25% 1 294062 4012 75%
c i 19.06 703  5 1 139 1019  753 39% 4 294062 4011 75%
c i 19.20 703 16 1 139 1106  806 55% 14 294062 4010 75%
c i 19.22 703 17 1 139 1131  823 54% 14 294062 4009 75%
c i 19.22 703 17 1 139 1132  823 54% 13 294062 4008 75%
c i 19.23 703 17 1 139 1140  829 54% 14 294062 4007 75%
c i 19.23 703 17 1 139 1145  833 54% 14 294062 4006 75%
c i 19.24 703 17 1 139 1146  833 54% 14 294062 4005 75%
c i 19.24 703 18 1 139 1154  837 54% 14 294062 4004 75%
c i 19.24 703 19 1 139 1173  850 54% 14 294062 4003 75%
c i 19.25 703 19 1 139 1182  856 54% 14 294062 4002 75%
c i 19.25 703 19 1 139 1184  857 54% 14 294062 4001 75%
c - 19.73 840 20 2 139 1193  765 53% 15 293945 4001 75%
c i 19.76 840 20 2 139 1196  767 53% 15 293945 4000 75%
c i 19.76 840 20 2 139 1197  767 53% 15 293945 3999 75%
c i 19.79 840 20 2 139 1209  775 53% 15 293945 3998 75%
c i 19.79 840 20 2 139 1210  775 53% 15 293945 3997 75%
c 
c  seconds   reductions  redundant   irredundant
c          MB    restarts       trail       variables
c           level   conflicts       glue         remaining
c 
c i 19.83 840 23 2 139 1286  830 54% 18 293945 3996 75%
c i 19.83 840 23 2 139 1287  830 54% 17 293945 3995 75%
c i 19.85 840 23 2 139 1306  847 54% 18 293945 3994 75%
c i 19.87 840 23 2 139 1373  888 55% 18 293945 3993 75%
c i 19.97 840 22 2 139 1783 1096 55% 18 293945 3992 75%
c - 20.42 838 20 3 140 2516 1158 56% 16 293918 3992 75%
c i 20.66 837 19 3 140 2650 1221 43% 16 293918 3991 75%
c i 20.72 837 18 3 140 2986 1397 43% 15 293918 3990 75%
c ] 20.73 837 18 3 140 3001 1407 42% 15 293918 3990 75%
c { 20.73 837 80 3 140 3001 1407 64% 32 293918 3990 75%
c F 20.77 837 80 3 141 3003 1409 64% 32 293918 3990 75%
c - 23.54 837 65 4 235 4277 1883 48% 29 293912 3990 75%
c d 24.48 837 60 4 262 5000 2433 46% 29 235470 3981 75%
c 2 24.54 837 60 4 262 5000 3428 46% 29 235409 3975 75%
c p 26.60 837 60 4 262 5000 9176 46% 29 235409 3912 74%
c d 26.98 837 60 4 262 5000 8499 46% 29 234968 3907 73%
c # 28.92 837 59 4 347 6004 9347 44% 30 234968 3907 73%
c - 29.79 764 57 5 359 6479 2995 43% 29 234968 3907 73%
c } 30.01 764 55 5 362 7002 3404 43% 28 234968 3907 73%
c [ 30.01 764 18 5 362 7002 3404 42% 15 234968 3907 73%
c 
c  seconds   reductions  redundant   irredundant
c          MB    restarts       trail       variables
c           level   conflicts       glue         remaining
c 
c - 30.70 764 23 6 363 8946 3208 41% 19 234968 3907 73%
c I 31.08 764 24 6 364 10005 3805 41% 20 234968 3907 73%
c - 33.46 764 32 7 366 11829 3837 39% 25 234968 3907 73%
c 2 37.45 764 37 7 367 15000 7205 38% 29 234957 3907 73%
c p 38.26 764 37 7 367 15000 12564 38% 29 234957 3906 73%
c ] 38.32 764 37 7 367 15003 12567 38% 29 234957 3906 73%
c { 38.32 764 55 7 367 15003 12567 43% 28 234957 3906 73%
c B 38.40 764 55 7 367 15011 12569 43% 28 234957 3906 73%
c - 39.08 665 56 8 395 15119 4632 43% 29 234954 3906 73%
c s 40.92 665 59 8 449 15552 4903 42% 30 232504 3906 73%
c v 45.14 665 59 8 449 15552 4903 42% 30 232388 3906 73%
c t 45.26 665 59 8 449 15552 4897 42% 30 232369 3906 73%
c e 46.16 666 59 8 449 15552 4714 42% 30 227014 1304 25%
c s 46.26 666 59 8 449 15552 4714 42% 30 226306 1304 25%
c - 49.61 666 49 9 487 18820 5374 60% 26 226306 1304 25%
c W 52.45 666 45 9 487 21013 7175 60% 24 226306 1304 25%
c - 54.60 765 43 10 487 22885 6451 60% 23 226306 1304 25%
c - 61.13 666 45 11 872 27356 7438 60% 25 226306 1304 25%
c F 62.54 666 46 11 985 28015 7960 60% 25 226306 1304 25%
c 2 65.98 666 45 11 1127 30002 10272 60% 25 226304 1304 25%
c 
c  seconds   reductions      redundant   irredundant
c          MB     restarts          trail       variables
c           level      conflicts        glue         remaining
c 
c p 68.63 666 45 11 1127 30002 12669 60% 25 226304 1289 24%
c d 68.97 666 45 11 1127 30002 12355 60% 25 226234 1288 24%
c } 70.18 666 44 11 1131 31005 13098 60% 25 226234 1288 24%
c [ 70.18 666 37 11 1131 31005 13098 117% 29 226234 1288 24%
c - 71.74 764 37 12 1131 32232 7984 110% 28 226234 1288 24%
c B 73.17 764 33 12 1134 36016 10306 96% 26 226234 1288 24%
c - 73.99 666 37 13 1134 37518 8297 92% 28 226234 1288 24%
c - 77.29 765 47 14 1138 43207 9245 85% 37 226234 1288 24%
c W 78.68 765 49 14 1138 45020 10711 83% 39 226234 1288 24%
c s 78.99 765 50 14 1138 45309 10950 83% 39 225199 1288 24%
c v 81.04 765 50 14 1138 45309 10950 83% 39 225160 1288 24%
c t 81.11 765 50 14 1138 45309 10948 83% 39 225159 1288 24%
c e 81.97 765 50 14 1138 45309 10914 83% 39 225154 1281 24%
c s 82.12 765 50 14 1138 45309 10913 83% 39 223517 1281 24%
c - 84.64 666 49 15 1139 49302 9311 80% 39 223517 1281 24%
c p 85.87 666 49 15 1139 50004 12850 80% 40 223517 1281 24%
c O 88.09 666 47 15 1140 55025 16070 77% 38 223517 1281 24%
c - 88.52 763 46 16 1141 55781 9401 77% 38 223517 1281 24%
c - 90.23 666 43 17 1145 62662 9304 74% 35 223517 1281 24%
c ] 90.32 666 43 17 1146 63006 9578 74% 35 223517 1281 24%
c 
c  seconds   reductions     redundant   irredundant
c          MB     restarts         trail       variables
c           level      conflicts       glue         remaining
c 
c { 90.32 666 44 17 1146 63006 9578 60% 25 223517 1281 24%
c B 91.20 666 41 17 1164 66028 11276 60% 24 223517 1281 24%
c - 101.01 763 44 18 1686 69949 10425 61% 25 223517 1281 24%
c p 103.02 763 39 18 1686 75008 17533 62% 24 223517 1280 24%
c - 105.27 665 38 19 1784 77642 11308 62% 23 223514 1280 24%
c W 105.81 665 38 19 1784 78029 11609 62% 23 223514 1280 24%
c - 108.25 763 35 20 1840 85737 12196 62% 22 223514 1280 24%
c s 110.85 763 35 20 2088 89994 15420 62% 23 221974 1280 24%
c v 112.79 763 35 20 2088 89994 15420 62% 23 221872 1280 24%
c t 112.85 763 35 20 2088 89994 15419 62% 23 221872 1280 24%
c e 113.59 763 35 20 2088 89994 15416 62% 23 221865 1273 24%
c s 113.82 763 35 20 2088 89994 15416 62% 23 219362 1273 24%
c # 114.93 763 35 20 2092 91032 16137 62% 22 219362 1273 24%
c - 117.18 665 34 21 2291 94240 13274 62% 22 219362 1273 24%
c - 127.04 762 34 22 2762 103091 14076 62% 22 219362 1273 24%
c 2 127.48 762 34 22 2768 105008 16119 62% 22 219362 1273 24%
c p 127.97 762 34 22 2768 105008 19559 62% 22 219362 1273 24%
c B 128.12 762 34 22 2768 105037 19574 62% 22 219362 1273 24%
c i 134.53 762 35 22 3379 111230 24324 62% 23 219362 1272 24%
c - 135.38 665 34 23 3414 112346 15968 62% 23 219360 1272 24%
c 
c  seconds    reductions       redundant   irredundant
c           MB     restarts           trail       variables
c            level      conflicts         glue         remaining
c 
c W 138.60 665 32 23 3463 120038 21035 62% 22 219360 1272 24%
c - 139.36 762 32 24 3465 122002 15560 62% 22 219360 1272 24%
c } 140.36 762 31 24 3489 127007 18510 62% 21 219360 1272 24%
c [ 140.36 762 43 24 3489 127007 18510 74% 35 219360 1272 24%
c - 141.59 665 40 25 3491 132060 15173 73% 33 219360 1272 24%
c B 142.70 665 38 25 3493 136039 17972 72% 31 219360 1272 24%
c p 145.83 665 39 25 3496 140010 25624 71% 32 219360 1271 24%
c - 147.21 763 40 26 3496 142521 17416 70% 32 219357 1271 24%
c s 149.36 763 40 26 3497 149426 22392 69% 33 217756 1271 24%
c v 151.15 763 40 26 3497 149426 22392 69% 33 217739 1271 24%
c w 151.27 763 40 26 3497 149426 22390 69% 33 217739 1271 24%
c t 151.28 763 40 26 3497 149426 22389 69% 33 217739 1271 24%
c e 152.01 763 40 26 3497 149426 22389 69% 33 217735 1269 24%
c s 152.33 763 40 26 3497 149426 22389 69% 33 214507 1269 24%
c W 154.51 763 40 26 3498 153042 24721 68% 33 214507 1269 24%
c - 154.69 665 40 27 3498 153384 17801 68% 33 214507 1269 24%
c - 158.80 760 38 28 3498 164570 16632 67% 31 214507 1269 24%
c I 160.89 760 37 28 3501 171046 20454 66% 31 214507 1269 24%
c - 163.43 665 37 29 3504 176153 17641 65% 31 214507 1269 24%
c p 166.05 665 38 29 3505 180013 24843 65% 31 214507 1269 24%
c 
c  seconds    reductions       redundant   irredundant
c           MB     restarts           trail       variables
c            level      conflicts         glue         remaining
c 
c - 170.80 665 39 30 3511 188137 18565 65% 32 214507 1269 24%
c B 171.80 665 39 30 3512 190049 19813 65% 33 214507 1269 24%
c ] 177.52 665 39 30 3513 200001 26688 64% 33 214507 1269 24%
c ? 177.52 665 39 30 3513 200001 26688 64% 33 214507 1269 24%
c 
c --- [ writing output ] -----------------------------------------------------
c 
c writing simplified CNF to DIMACS file 'simp/5.cubes47.adj.simp1'
c * 177.52 665 39 30 3513 200001 26688 64% 33 214507 1269 24%
c opening file to write 'simp/5.cubes47.adj.simp1'
c writing 'p cnf 5320 214507' header
c closing file 'simp/5.cubes47.adj.simp1'
c after writing 106309171 bytes 101.4 MB
c wrote 214507 clauses in 0.86 seconds process time
c 
c --- [ writing extension ] --------------------------------------------------
c 
c writing extension stack to 'simp/5.cubes47.adj.ext1'
c opening file to write 'simp/5.cubes47.adj.ext1'
c closing file 'simp/5.cubes47.adj.ext1'
c after writing 170996 bytes 0.2 MB
c wrote 7487 witnesses in 0.00 seconds process time
c 
c --- [ result ] -------------------------------------------------------------
c 
c UNKNOWN
c 
c --- [ run-time profiling ] -------------------------------------------------
c 
c process time taken by individual solving procedures
c (percentage relative to process time for solving)
c 
c       139.02   82.25% search
c        81.49   48.21% unstable
c        54.17   32.05% stable
c        30.01   17.75% simplify
c        10.33    6.11% probe
c        10.28    6.08% vivify
c         8.49    5.02% parse
c         6.18    3.65% elim
c         2.44    1.44% walk
c         1.58    0.93% subsume
c         0.92    0.54% lucky
c         0.25    0.15% ternary
c   =================================
c       169.03   94.76% solve
c 
c last line shows process time for solving
c (percentage relative to total process time)
c 
c --- [ statistics ] ---------------------------------------------------------
c 
c chronological:             39269        19.63 %  of conflicts
c conflicts:                200001      1183.25    per second
c decisions:                472558      2795.76    per second
c eliminated:                 2618        49.21 %  of all variables
c fixed:                      1418        26.65 %  of all variables
c learned:                  195595        97.80 %  per conflict
c learned_lits:           38533651       100.00 %  learned literals
c minimized:                     0         0.00 %  learned literals
c shrunken:               24443117        63.43 %  learned literals
c minishrunken:            2769339         7.19 %  learned literals
c propagations:           18389236         0.11 M  per second
c reduced:                  114323        57.16 %  per conflict
c rephased:                     19     10526.37    interval
c restarts:                   3513        56.93    interval
c stabilizing:                   4        57.50 %  of conflicts
c substituted:                  15         0.28 %  of all variables
c subsumed:                  69881         2.93 %  of all clauses
c strengthened:              31438         1.32 %  of all clauses
c ternary:                    7342         0.57 %  of resolved
c vivified:                    333         0.01 %  of all clauses
c walked:                        5     40000.20    interval
c weakened:                   6069         3.17    average size
c 
c seconds are measured in process time for solving
c 
c --- [ resources ] ----------------------------------------------------------
c 
c total process time since initialization:       178.38    seconds
c total real time since initialization:          178.50    seconds
c maximum resident set size of process:          973.71    MB
c 
c --- [ shutting down ] ------------------------------------------------------
c 
c exit 0
WARNING! DIMACS header mismatch: wrong number of variables.
============================[ Problem Statistics ]=============================
|                                                                             |
|  Number of variables:          3429                                         |
|  Number of clauses:          214513                                         |
|  Parse time:                   1.42 s                                       |
|  Simplification time:          0.03 s                                       |
|                                                                             |
============================[ Search Statistics ]====================================================
| Conflicts |          ORIGINAL         |          LEARNT          | Num Sols |      SUBGRAPHS      |
|           |    Vars  Clauses Literals |    Limit  Clauses Lit/Cl |          | Canonical Noncanon. |
=====================================================================================================
|       151 |    3360   214564 23443230 |     2000      151     73 |        0 |        31        51 |
|       313 |    3360   214576 23443596 |     2000      313    113 |        0 |        35        63 |
|       569 |    3360   214607 23444268 |     2000      569    110 |        0 |        41        94 |
|       935 |    3360   214636 23444876 |     2000      935    118 |        0 |        52       123 |
|      1462 |    3360   214657 23445411 |     2000     1462    109 |        0 |        68       144 |
|      2266 |    3360   214702 23447039 |     3605     1271     72 |        0 |       105       189 |
|      3566 |    3360   214863 23450063 |     3605     2571     85 |        0 |       135       350 |
|      5356 |    3360   214945 23451693 |     5003     2559     57 |        0 |       205       432 |
|      7989 |    3360   215016 23453062 |     6308     2697     46 |        0 |       261       503 |
|     11891 |    3360   215074 23454332 |     7553     3444     58 |        0 |       276       561 |
|     17951 |    3360   215368 23462527 |     8778     5729     67 |        0 |       406       855 |
|     26915 |    3360   215683 23468243 |    11201     5316     42 |        0 |       554      1170 |
|     40358 |    3360   216152 23478942 |    13606     6964     31 |        0 |       691      1639 |
|     60321 |    3360   216654 23489498 |    16010    12731     61 |        0 |       882      2141 |
|     90182 |    3360   217323 23504605 |    19611    16793     64 |        0 |      1157      2810 |
|    134675 |    3360   218027 23522652 |    24409    18484     56 |        0 |      1440      3514 |
|    201008 |    3360   218676 23538624 |    30413    17821     40 |        0 |      1761      4163 |
|    300298 |    3360   219440 23557551 |    36416    35114     76 |        0 |      2110      4927 |
|    452540 |    3360   223893 23655923 |    46017    24957     30 |        0 |      3213      9380 |
|    676587 |    3360   226257 23711573 |    55604    48191     58 |        0 |      4065     11744 |
|   1011689 |    3360   228834 23780276 |    68820    44509     48 |        0 |      5089     14321 |
|   1512295 |    3360   230652 23831069 |    84420    51115     38 |        0 |      6153     16139 |
|   2261893 |    3360   232068 23879850 |   103611    53504     26 |        0 |      6847     17555 |
|   3389614 |    3360   237515 24033628 |   126406    94420     65 |        0 |      9152     23002 |
|   5089064 |    3360   253554 24429336 |   155231   111495     55 |        0 |     15305     39041 |
|   7625118 |    3360   264492 24731037 |   190029   153547     71 |        0 |     21391     49979 |
|  11436330 |    3360   288029 25438485 |   233242   166772     55 |        0 |     32078     73516 |
|  17163349 |    3360   333536 26718309 |   286034   195783     45 |        7 |     48889    119016 |
|  25748520 |    3360   396438 28407543 |   350844   200364     38 |       10 |     65068    181915 |
|  38573474 |    3359   437836 29482316 |   428834   376308     67 |       11 |     81920    223465 |
|  57777200 |    3350   284092 22303377 |   525922   269522     44 |       17 |     94161    252080 |
=====================================================================================================
Number of solutions   : 17
Canonical subgraphs   : 95652          (6 /sec)
          order  3    : 1              (200000 /sec)
          order  4    : 1              (500000 /sec)
          order  5    : 1              (250000 /sec)
          order  6    : 1              (52632 /sec)
          order  7    : 2              (10204 /sec)
          order  8    : 3              (1866 /sec)
          order  9    : 7              (360 /sec)
          order 10    : 21             (83 /sec)
          order 11    : 87             (25 /sec)
          order 12    : 401            (6 /sec)
          order 13    : 1531           (4 /sec)
          order 14    : 8836           (6 /sec)
          order 15    : 44410          (6 /sec)
          order 16    : 36943          (7 /sec)
          order 17    : 2918           (6 /sec)
          order 18    : 299            (6 /sec)
          order 19    : 107            (5 /sec)
          order 20    : 66             (6 /sec)
          order 21    : 17             (1 /sec)
Noncanonical subgraphs: 256349         (566 /sec)
          order  3    : 0              (-nan /sec)
          order  4    : 0              (-nan /sec)
          order  5    : 0              (-nan /sec)
          order  6    : 0              (-nan /sec)
          order  7    : 0              (-nan /sec)
          order  8    : 0              (-nan /sec)
          order  9    : 0              (-nan /sec)
          order 10    : 0              (-nan /sec)
          order 11    : 0              (-nan /sec)
          order 12    : 0              (-nan /sec)
          order 13    : 6170           (8285 /sec)
          order 14    : 39158          (3012 /sec)
          order 15    : 129925         (1921 /sec)
          order 16    : 73355          (335 /sec)
          order 17    : 7672           (53 /sec)
          order 18    : 20             (26 /sec)
          order 19    : 0              (-nan /sec)
          order 20    : 0              (-nan /sec)
Canonicity checking   : 14960.6 s
Noncanonicity checking: 452.939 s
Total canonicity time : 15413.5 s
database reductions   : 452
restarts              : 81592
conflicts             : 62238943       (1566 /sec)
decisions             : 78556979       (0.00 % random) (1977 /sec)
propagations          : 3697021366     (93048 /sec)
conflict literals     : 7271196336     (58.88 % deleted)
actual reward         : 0.220359
Memory used           : 690.00 MB
CPU time              : 39732.4 s

UNSATISFIABLE
